without_loop_formulas/r_aircoach_20130716_1324_subgraph_bus_gr_bz2_lp_lp_paths_tw3.lp.cnf
p cnf 743 1771
c 79 select(1,45)
c 80 nots(1,45)
c 81 select(1,46)
c 82 nots(1,46)
c 83 reach(46)
c 84 reach(45)
c 85 select(45,1)
c 86 nots(45,1)
c 87 select(45,9)
c 88 nots(45,9)
c 89 select(46,1)
c 90 nots(46,1)
c 91 select(46,51)
c 92 nots(46,51)
c 93 reach(51)
c 94 reach(9)
c 95 select(51,46)
c 96 nots(51,46)
c 97 select(9,57)
c 98 nots(9,57)
c 99 select(9,45)
c 100 nots(9,45)
c 101 select(51,59)
c 102 nots(51,59)
c 103 reach(59)
c 104 reach(57)
c 105 select(57,9)
c 106 nots(57,9)
c 107 select(57,14)
c 108 nots(57,14)
c 109 select(57,55)
c 110 nots(57,55)
c 111 select(59,51)
c 112 nots(59,51)
c 113 reach(55)
c 114 reach(14)
c 115 select(14,6)
c 116 nots(14,6)
c 117 select(55,44)
c 118 nots(55,44)
c 119 select(14,57)
c 120 nots(14,57)
c 121 select(55,57)
c 122 nots(55,57)
c 123 reach(44)
c 124 reach(6)
c 125 select(6,32)
c 126 nots(6,32)
c 127 select(6,14)
c 128 nots(6,14)
c 129 select(44,62)
c 130 nots(44,62)
c 131 select(44,55)
c 132 nots(44,55)
c 133 reach(62)
c 134 reach(32)
c 135 select(32,6)
c 136 nots(32,6)
c 137 select(62,44)
c 138 nots(62,44)
c 139 select(32,64)
c 140 nots(32,64)
c 141 select(62,64)
c 142 nots(62,64)
c 143 reach(64)
c 144 select(64,32)
c 145 nots(64,32)
c 146 select(64,61)
c 147 nots(64,61)
c 148 select(64,62)
c 149 nots(64,62)
c 150 reach(61)
c 151 select(61,52)
c 152 nots(61,52)
c 153 select(61,60)
c 154 nots(61,60)
c 155 select(61,64)
c 156 nots(61,64)
c 157 reach(60)
c 158 reach(52)
c 159 select(52,31)
c 160 nots(52,31)
c 161 select(60,31)
c 162 nots(60,31)
c 163 select(52,61)
c 164 nots(52,61)
c 165 select(60,61)
c 166 nots(60,61)
c 167 reach(31)
c 168 select(31,13)
c 169 nots(31,13)
c 170 select(31,52)
c 171 nots(31,52)
c 172 select(31,66)
c 173 nots(31,66)
c 174 select(31,60)
c 175 nots(31,60)
c 176 reach(66)
c 177 reach(13)
c 178 select(66,31)
c 179 nots(66,31)
c 180 select(66,49)
c 181 nots(66,49)
c 182 select(13,28)
c 183 nots(13,28)
c 184 select(13,31)
c 185 nots(13,31)
c 186 reach(28)
c 187 reach(49)
c 188 select(49,29)
c 189 nots(49,29)
c 190 select(28,13)
c 191 nots(28,13)
c 192 select(28,24)
c 193 nots(28,24)
c 194 select(49,66)
c 195 nots(49,66)
c 196 reach(24)
c 197 reach(29)
c 198 select(29,22)
c 199 nots(29,22)
c 200 select(29,49)
c 201 nots(29,49)
c 202 select(24,28)
c 203 nots(24,28)
c 204 select(24,39)
c 205 nots(24,39)
c 206 reach(39)
c 207 reach(22)
c 208 select(39,15)
c 209 nots(39,15)
c 210 select(39,24)
c 211 nots(39,24)
c 212 select(22,29)
c 213 nots(22,29)
c 214 select(22,53)
c 215 nots(22,53)
c 216 reach(53)
c 217 reach(15)
c 218 select(53,22)
c 219 nots(53,22)
c 220 select(15,36)
c 221 nots(15,36)
c 222 select(15,39)
c 223 nots(15,39)
c 224 select(53,54)
c 225 nots(53,54)
c 226 reach(54)
c 227 reach(36)
c 228 select(36,5)
c 229 nots(36,5)
c 230 select(36,12)
c 231 nots(36,12)
c 232 select(36,15)
c 233 nots(36,15)
c 234 select(36,36)
c 235 nots(36,36)
c 236 select(54,37)
c 237 nots(54,37)
c 238 select(54,53)
c 239 nots(54,53)
c 240 select(36,38)
c 241 nots(36,38)
c 242 select(36,48)
c 243 nots(36,48)
c 244 reach(48)
c 245 reach(38)
c 246 reach(37)
c 247 reach(12)
c 248 reach(5)
c 249 select(38,36)
c 250 nots(38,36)
c 251 select(48,36)
c 252 nots(48,36)
c 253 select(48,43)
c 254 nots(48,43)
c 255 select(5,56)
c 256 nots(5,56)
c 257 select(5,36)
c 258 nots(5,36)
c 259 select(5,43)
c 260 nots(5,43)
c 261 select(5,20)
c 262 nots(5,20)
c 263 select(12,56)
c 264 nots(12,56)
c 265 select(12,36)
c 266 nots(12,36)
c 267 select(37,54)
c 268 nots(37,54)
c 269 select(38,56)
c 270 nots(38,56)
c 271 reach(56)
c 272 reach(20)
c 273 reach(43)
c 274 select(43,5)
c 275 nots(43,5)
c 276 select(20,5)
c 277 nots(20,5)
c 278 select(56,5)
c 279 nots(56,5)
c 280 select(56,12)
c 281 nots(56,12)
c 282 select(56,25)
c 283 nots(56,25)
c 284 select(56,38)
c 285 nots(56,38)
c 286 select(43,48)
c 287 nots(43,48)
c 288 select(20,23)
c 289 nots(20,23)
c 290 reach(23)
c 291 reach(25)
c 292 select(25,19)
c 293 nots(25,19)
c 294 select(23,20)
c 295 nots(23,20)
c 296 select(25,56)
c 297 nots(25,56)
c 298 select(25,34)
c 299 nots(25,34)
c 300 select(23,58)
c 301 nots(23,58)
c 302 reach(58)
c 303 reach(34)
c 304 reach(19)
c 305 select(34,25)
c 306 nots(34,25)
c 307 select(58,2)
c 308 nots(58,2)
c 309 select(58,19)
c 310 nots(58,19)
c 311 select(58,23)
c 312 nots(58,23)
c 313 select(58,26)
c 314 nots(58,26)
c 315 select(19,25)
c 316 nots(19,25)
c 317 select(19,58)
c 318 nots(19,58)
c 319 select(34,41)
c 320 nots(34,41)
c 321 reach(41)
c 322 reach(26)
c 323 reach(2)
c 324 select(26,2)
c 325 nots(26,2)
c 326 select(41,8)
c 327 nots(41,8)
c 328 select(41,34)
c 329 nots(41,34)
c 330 select(2,58)
c 331 nots(2,58)
c 332 select(2,26)
c 333 nots(2,26)
c 334 select(26,42)
c 335 nots(26,42)
c 336 select(26,58)
c 337 nots(26,58)
c 338 reach(42)
c 339 reach(8)
c 340 select(42,17)
c 341 nots(42,17)
c 342 select(42,26)
c 343 nots(42,26)
c 344 select(8,65)
c 345 nots(8,65)
c 346 select(8,41)
c 347 nots(8,41)
c 348 reach(65)
c 349 reach(17)
c 350 select(17,10)
c 351 nots(17,10)
c 352 select(65,8)
c 353 nots(65,8)
c 354 select(65,10)
c 355 nots(65,10)
c 356 select(17,42)
c 357 nots(17,42)
c 358 select(17,50)
c 359 nots(17,50)
c 360 select(17,18)
c 361 nots(17,18)
c 362 reach(18)
c 363 reach(50)
c 364 reach(10)
c 365 select(50,17)
c 366 nots(50,17)
c 367 select(50,27)
c 368 nots(50,27)
c 369 select(18,17)
c 370 nots(18,17)
c 371 select(10,65)
c 372 nots(10,65)
c 373 select(10,17)
c 374 nots(10,17)
c 375 select(18,47)
c 376 nots(18,47)
c 377 reach(47)
c 378 reach(27)
c 379 select(47,18)
c 380 nots(47,18)
c 381 select(47,21)
c 382 nots(47,21)
c 383 select(27,33)
c 384 nots(27,33)
c 385 select(27,50)
c 386 nots(27,50)
c 387 reach(33)
c 388 reach(21)
c 389 select(33,3)
c 390 nots(33,3)
c 391 select(33,27)
c 392 nots(33,27)
c 393 select(21,40)
c 394 nots(21,40)
c 395 select(21,47)
c 396 nots(21,47)
c 397 reach(40)
c 398 reach(3)
c 399 select(40,21)
c 400 nots(40,21)
c 401 select(3,33)
c 402 nots(3,33)
c 403 select(3,4)
c 404 nots(3,4)
c 405 select(40,63)
c 406 nots(40,63)
c 407 reach(63)
c 408 reach(4)
c 409 select(4,3)
c 410 nots(4,3)
c 411 select(63,4)
c 412 nots(63,4)
c 413 select(63,40)
c 414 nots(63,40)
c 415 select(4,11)
c 416 nots(4,11)
c 417 select(4,16)
c 418 nots(4,16)
c 419 select(4,63)
c 420 nots(4,63)
c 421 reach(16)
c 422 reach(11)
c 423 select(11,4)
c 424 nots(11,4)
c 425 select(11,7)
c 426 nots(11,7)
c 427 select(16,4)
c 428 nots(16,4)
c 429 select(16,30)
c 430 nots(16,30)
c 431 reach(30)
c 432 reach(7)
c 433 select(30,16)
c 434 nots(30,16)
c 435 select(7,35)
c 436 nots(7,35)
c 437 select(7,11)
c 438 nots(7,11)
c 439 select(30,35)
c 440 nots(30,35)
c 441 reach(35)
c 442 select(35,7)
c 443 nots(35,7)
c 444 select(35,30)
c 445 nots(35,30)
c 513 edge(1,45)
c 514 edge(1,46)
c 515 edge(2,58)
c 516 edge(2,26)
c 517 edge(3,33)
c 518 edge(3,4)
c 519 edge(4,11)
c 520 edge(4,16)
c 521 edge(4,63)
c 522 edge(5,56)
c 523 edge(5,36)
c 524 edge(5,43)
c 525 edge(5,20)
c 526 edge(6,32)
c 527 edge(6,14)
c 528 edge(7,35)
c 529 edge(7,11)
c 530 edge(8,65)
c 531 edge(8,41)
c 532 edge(9,57)
c 533 edge(9,45)
c 534 edge(10,65)
c 535 edge(10,17)
c 536 edge(12,56)
c 537 edge(12,36)
c 538 edge(13,28)
c 539 edge(13,31)
c 540 edge(14,57)
c 541 edge(15,36)
c 542 edge(15,39)
c 543 edge(16,30)
c 544 edge(17,42)
c 545 edge(17,50)
c 546 edge(17,18)
c 547 edge(18,47)
c 548 edge(19,25)
c 549 edge(19,58)
c 550 edge(20,23)
c 551 edge(21,40)
c 552 edge(21,47)
c 553 edge(22,29)
c 554 edge(22,53)
c 555 edge(23,58)
c 556 edge(24,28)
c 557 edge(24,39)
c 558 edge(25,56)
c 559 edge(25,34)
c 560 edge(26,42)
c 561 edge(26,58)
c 562 edge(27,33)
c 563 edge(27,50)
c 564 edge(29,49)
c 565 edge(30,35)
c 566 edge(31,52)
c 567 edge(31,66)
c 568 edge(31,60)
c 569 edge(32,64)
c 570 edge(34,41)
c 571 edge(36,36)
c 572 edge(36,38)
c 573 edge(36,48)
c 574 edge(37,54)
c 575 edge(38,56)
c 576 edge(40,63)
c 577 edge(43,48)
c 578 edge(44,62)
c 579 edge(44,55)
c 580 edge(46,51)
c 581 edge(49,66)
c 582 edge(51,59)
c 583 edge(52,61)
c 584 edge(53,54)
c 585 edge(55,57)
c 586 edge(60,61)
c 587 edge(61,64)
c 588 edge(62,64)
c 589 reach(1)
c 590 goal(66)
79 80 0
-79 -80 0
81 82 0
-81 -82 0
591 -81 0
-591 81 0
592 -79 0
-592 79 0
85 -84 86 0
-85 84 0
-85 -86 0
87 -84 88 0
-87 84 0
-87 -88 0
89 -83 90 0
-89 83 0
-89 -90 0
91 -83 92 0
-91 83 0
-91 -92 0
593 -91 0
-593 91 0
594 -87 0
-594 87 0
95 -93 96 0
-95 93 0
-95 -96 0
97 -94 98 0
-97 94 0
-97 -98 0
99 -94 100 0
-99 94 0
-99 -100 0
101 -93 102 0
-101 93 0
-101 -102 0
103 -101 0
-103 101 0
595 -99 0
-595 99 0
596 -97 0
-596 97 0
597 -95 0
-597 95 0
105 -104 106 0
-105 104 0
-105 -106 0
107 -104 108 0
-107 104 0
-107 -108 0
109 -104 110 0
-109 104 0
-109 -110 0
111 -103 112 0
-111 103 0
-111 -112 0
598 -111 0
-598 111 0
599 -109 0
-599 109 0
600 -107 0
-600 107 0
601 -105 0
-601 105 0
115 -114 116 0
-115 114 0
-115 -116 0
117 -113 118 0
-117 113 0
-117 -118 0
119 -114 120 0
-119 114 0
-119 -120 0
121 -113 122 0
-121 113 0
-121 -122 0
602 -121 0
-602 121 0
603 -119 0
-603 119 0
604 -117 0
-604 117 0
605 -115 0
-605 115 0
125 -124 126 0
-125 124 0
-125 -126 0
127 -124 128 0
-127 124 0
-127 -128 0
129 -123 130 0
-129 123 0
-129 -130 0
131 -123 132 0
-131 123 0
-131 -132 0
606 -131 0
-606 131 0
607 -129 0
-607 129 0
608 -127 0
-608 127 0
609 -125 0
-609 125 0
135 -134 136 0
-135 134 0
-135 -136 0
137 -133 138 0
-137 133 0
-137 -138 0
139 -134 140 0
-139 134 0
-139 -140 0
141 -133 142 0
-141 133 0
-141 -142 0
610 -141 0
-610 141 0
611 -139 0
-611 139 0
612 -137 0
-612 137 0
613 -135 0
-613 135 0
144 -143 145 0
-144 143 0
-144 -145 0
146 -143 147 0
-146 143 0
-146 -147 0
148 -143 149 0
-148 143 0
-148 -149 0
614 -148 0
-614 148 0
615 -146 0
-615 146 0
616 -144 0
-616 144 0
151 -150 152 0
-151 150 0
-151 -152 0
153 -150 154 0
-153 150 0
-153 -154 0
155 -150 156 0
-155 150 0
-155 -156 0
617 -155 0
-617 155 0
618 -153 0
-618 153 0
619 -151 0
-619 151 0
159 -158 160 0
-159 158 0
-159 -160 0
161 -157 162 0
-161 157 0
-161 -162 0
163 -158 164 0
-163 158 0
-163 -164 0
165 -157 166 0
-165 157 0
-165 -166 0
620 -165 0
-620 165 0
621 -163 0
-621 163 0
622 -161 0
-622 161 0
623 -159 0
-623 159 0
168 -167 169 0
-168 167 0
-168 -169 0
170 -167 171 0
-170 167 0
-170 -171 0
172 -167 173 0
-172 167 0
-172 -173 0
174 -167 175 0
-174 167 0
-174 -175 0
624 -174 0
-624 174 0
625 -172 0
-625 172 0
626 -170 0
-626 170 0
627 -168 0
-627 168 0
178 -176 179 0
-178 176 0
-178 -179 0
180 -176 181 0
-180 176 0
-180 -181 0
182 -177 183 0
-182 177 0
-182 -183 0
184 -177 185 0
-184 177 0
-184 -185 0
628 -184 0
-628 184 0
629 -182 0
-629 182 0
630 -180 0
-630 180 0
631 -178 0
-631 178 0
188 -187 189 0
-188 187 0
-188 -189 0
190 -186 191 0
-190 186 0
-190 -191 0
192 -186 193 0
-192 186 0
-192 -193 0
194 -187 195 0
-194 187 0
-194 -195 0
632 -194 0
-632 194 0
633 -192 0
-633 192 0
634 -190 0
-634 190 0
635 -188 0
-635 188 0
198 -197 199 0
-198 197 0
-198 -199 0
200 -197 201 0
-200 197 0
-200 -201 0
202 -196 203 0
-202 196 0
-202 -203 0
204 -196 205 0
-204 196 0
-204 -205 0
636 -204 0
-636 204 0
637 -202 0
-637 202 0
638 -200 0
-638 200 0
639 -198 0
-639 198 0
208 -206 209 0
-208 206 0
-208 -209 0
210 -206 211 0
-210 206 0
-210 -211 0
212 -207 213 0
-212 207 0
-212 -213 0
214 -207 215 0
-214 207 0
-214 -215 0
640 -214 0
-640 214 0
641 -212 0
-641 212 0
642 -210 0
-642 210 0
643 -208 0
-643 208 0
218 -216 219 0
-218 216 0
-218 -219 0
220 -217 221 0
-220 217 0
-220 -221 0
222 -217 223 0
-222 217 0
-222 -223 0
224 -216 225 0
-224 216 0
-224 -225 0
644 -224 0
-644 224 0
645 -222 0
-645 222 0
646 -220 0
-646 220 0
647 -218 0
-647 218 0
228 -227 229 0
-228 227 0
-228 -229 0
230 -227 231 0
-230 227 0
-230 -231 0
232 -227 233 0
-232 227 0
-232 -233 0
648 -227 235 0
-648 227 0
-648 -235 0
236 -226 237 0
-236 226 0
-236 -237 0
238 -226 239 0
-238 226 0
-238 -239 0
649 -227 235 0
-649 227 0
-649 -235 0
240 -227 241 0
-240 227 0
-240 -241 0
242 -227 243 0
-242 227 0
-242 -243 0
650 -242 0
-650 242 0
651 -240 0
-651 240 0
652 -238 0
-652 238 0
246 -236 0
-246 236 0
653 -234 0
-653 234 0
654 -232 0
-654 232 0
655 -230 0
-655 230 0
656 -228 0
-656 228 0
249 -245 250 0
-249 245 0
-249 -250 0
251 -244 252 0
-251 244 0
-251 -252 0
253 -244 254 0
-253 244 0
-253 -254 0
255 -248 256 0
-255 248 0
-255 -256 0
257 -248 258 0
-257 248 0
-257 -258 0
259 -248 260 0
-259 248 0
-259 -260 0
261 -248 262 0
-261 248 0
-261 -262 0
263 -247 264 0
-263 247 0
-263 -264 0
265 -247 266 0
-265 247 0
-265 -266 0
267 -246 268 0
-267 246 0
-267 -268 0
269 -245 270 0
-269 245 0
-269 -270 0
657 -269 0
-657 269 0
658 -267 0
-658 267 0
659 -265 0
-659 265 0
660 -263 0
-660 263 0
661 -261 0
-661 261 0
662 -259 0
-662 259 0
663 -257 0
-663 257 0
664 -255 0
-664 255 0
665 -253 0
-665 253 0
666 -251 0
-666 251 0
667 -249 0
-667 249 0
274 -273 275 0
-274 273 0
-274 -275 0
276 -272 277 0
-276 272 0
-276 -277 0
278 -271 279 0
-278 271 0
-278 -279 0
280 -271 281 0
-280 271 0
-280 -281 0
282 -271 283 0
-282 271 0
-282 -283 0
284 -271 285 0
-284 271 0
-284 -285 0
286 -273 287 0
-286 273 0
-286 -287 0
288 -272 289 0
-288 272 0
-288 -289 0
668 -288 0
-668 288 0
669 -286 0
-669 286 0
670 -284 0
-670 284 0
671 -282 0
-671 282 0
672 -280 0
-672 280 0
673 -278 0
-673 278 0
674 -276 0
-674 276 0
675 -274 0
-675 274 0
292 -291 293 0
-292 291 0
-292 -293 0
294 -290 295 0
-294 290 0
-294 -295 0
296 -291 297 0
-296 291 0
-296 -297 0
298 -291 299 0
-298 291 0
-298 -299 0
300 -290 301 0
-300 290 0
-300 -301 0
676 -300 0
-676 300 0
677 -298 0
-677 298 0
678 -296 0
-678 296 0
679 -294 0
-679 294 0
680 -292 0
-680 292 0
305 -303 306 0
-305 303 0
-305 -306 0
307 -302 308 0
-307 302 0
-307 -308 0
309 -302 310 0
-309 302 0
-309 -310 0
311 -302 312 0
-311 302 0
-311 -312 0
313 -302 314 0
-313 302 0
-313 -314 0
315 -304 316 0
-315 304 0
-315 -316 0
317 -304 318 0
-317 304 0
-317 -318 0
319 -303 320 0
-319 303 0
-319 -320 0
681 -319 0
-681 319 0
682 -317 0
-682 317 0
683 -315 0
-683 315 0
684 -313 0
-684 313 0
685 -311 0
-685 311 0
686 -309 0
-686 309 0
687 -307 0
-687 307 0
688 -305 0
-688 305 0
324 -322 325 0
-324 322 0
-324 -325 0
326 -321 327 0
-326 321 0
-326 -327 0
328 -321 329 0
-328 321 0
-328 -329 0
330 -323 331 0
-330 323 0
-330 -331 0
332 -323 333 0
-332 323 0
-332 -333 0
334 -322 335 0
-334 322 0
-334 -335 0
336 -322 337 0
-336 322 0
-336 -337 0
689 -336 0
-689 336 0
690 -334 0
-690 334 0
691 -332 0
-691 332 0
692 -330 0
-692 330 0
693 -328 0
-693 328 0
694 -326 0
-694 326 0
695 -324 0
-695 324 0
340 -338 341 0
-340 338 0
-340 -341 0
342 -338 343 0
-342 338 0
-342 -343 0
344 -339 345 0
-344 339 0
-344 -345 0
346 -339 347 0
-346 339 0
-346 -347 0
696 -346 0
-696 346 0
697 -344 0
-697 344 0
698 -342 0
-698 342 0
699 -340 0
-699 340 0
350 -349 351 0
-350 349 0
-350 -351 0
352 -348 353 0
-352 348 0
-352 -353 0
354 -348 355 0
-354 348 0
-354 -355 0
356 -349 357 0
-356 349 0
-356 -357 0
358 -349 359 0
-358 349 0
-358 -359 0
360 -349 361 0
-360 349 0
-360 -361 0
700 -360 0
-700 360 0
701 -358 0
-701 358 0
702 -356 0
-702 356 0
703 -354 0
-703 354 0
704 -352 0
-704 352 0
705 -350 0
-705 350 0
365 -363 366 0
-365 363 0
-365 -366 0
367 -363 368 0
-367 363 0
-367 -368 0
369 -362 370 0
-369 362 0
-369 -370 0
371 -364 372 0
-371 364 0
-371 -372 0
373 -364 374 0
-373 364 0
-373 -374 0
375 -362 376 0
-375 362 0
-375 -376 0
706 -375 0
-706 375 0
707 -373 0
-707 373 0
708 -371 0
-708 371 0
709 -369 0
-709 369 0
710 -367 0
-710 367 0
711 -365 0
-711 365 0
379 -377 380 0
-379 377 0
-379 -380 0
381 -377 382 0
-381 377 0
-381 -382 0
383 -378 384 0
-383 378 0
-383 -384 0
385 -378 386 0
-385 378 0
-385 -386 0
712 -385 0
-712 385 0
713 -383 0
-713 383 0
714 -381 0
-714 381 0
715 -379 0
-715 379 0
389 -387 390 0
-389 387 0
-389 -390 0
391 -387 392 0
-391 387 0
-391 -392 0
393 -388 394 0
-393 388 0
-393 -394 0
395 -388 396 0
-395 388 0
-395 -396 0
716 -395 0
-716 395 0
717 -393 0
-717 393 0
718 -391 0
-718 391 0
719 -389 0
-719 389 0
399 -397 400 0
-399 397 0
-399 -400 0
401 -398 402 0
-401 398 0
-401 -402 0
403 -398 404 0
-403 398 0
-403 -404 0
405 -397 406 0
-405 397 0
-405 -406 0
720 -405 0
-720 405 0
721 -403 0
-721 403 0
722 -401 0
-722 401 0
723 -399 0
-723 399 0
409 -408 410 0
-409 408 0
-409 -410 0
411 -407 412 0
-411 407 0
-411 -412 0
413 -407 414 0
-413 407 0
-413 -414 0
415 -408 416 0
-415 408 0
-415 -416 0
417 -408 418 0
-417 408 0
-417 -418 0
419 -408 420 0
-419 408 0
-419 -420 0
724 -419 0
-724 419 0
725 -417 0
-725 417 0
726 -415 0
-726 415 0
727 -413 0
-727 413 0
728 -411 0
-728 411 0
729 -409 0
-729 409 0
423 -422 424 0
-423 422 0
-423 -424 0
425 -422 426 0
-425 422 0
-425 -426 0
427 -421 428 0
-427 421 0
-427 -428 0
429 -421 430 0
-429 421 0
-429 -430 0
730 -429 0
-730 429 0
731 -427 0
-731 427 0
732 -425 0
-732 425 0
733 -423 0
-733 423 0
433 -431 434 0
-433 431 0
-433 -434 0
435 -432 436 0
-435 432 0
-435 -436 0
437 -432 438 0
-437 432 0
-437 -438 0
439 -431 440 0
-439 431 0
-439 -440 0
734 -439 0
-734 439 0
735 -437 0
-735 437 0
736 -435 0
-736 435 0
737 -433 0
-737 433 0
442 -441 443 0
-442 441 0
-442 -443 0
444 -441 445 0
-444 441 0
-444 -445 0
738 -444 0
-738 444 0
739 -442 0
-739 442 0
86 -84 85 0
-86 84 0
-86 -85 0
90 -83 89 0
-90 83 0
-90 -89 0
308 -302 307 0
-308 302 0
-308 -307 0
325 -322 324 0
-325 322 0
-325 -324 0
390 -387 389 0
-390 387 0
-390 -389 0
410 -408 409 0
-410 408 0
-410 -409 0
424 -422 423 0
-424 422 0
-424 -423 0
428 -421 427 0
-428 421 0
-428 -427 0
412 -407 411 0
-412 407 0
-412 -411 0
279 -271 278 0
-279 271 0
-279 -278 0
229 -227 228 0
-229 227 0
-229 -228 0
275 -273 274 0
-275 273 0
-275 -274 0
277 -272 276 0
-277 272 0
-277 -276 0
136 -134 135 0
-136 134 0
-136 -135 0
116 -114 115 0
-116 114 0
-116 -115 0
443 -441 442 0
-443 441 0
-443 -442 0
426 -422 425 0
-426 422 0
-426 -425 0
353 -348 352 0
-353 348 0
-353 -352 0
327 -321 326 0
-327 321 0
-327 -326 0
106 -104 105 0
-106 104 0
-106 -105 0
88 -84 87 0
-88 84 0
-88 -87 0
355 -348 354 0
-355 348 0
-355 -354 0
351 -349 350 0
-351 349 0
-351 -350 0
281 -271 280 0
-281 271 0
-281 -280 0
231 -227 230 0
-231 227 0
-231 -230 0
191 -186 190 0
-191 186 0
-191 -190 0
169 -167 168 0
-169 167 0
-169 -168 0
108 -104 107 0
-108 104 0
-108 -107 0
233 -227 232 0
-233 227 0
-233 -232 0
209 -206 208 0
-209 206 0
-209 -208 0
434 -431 433 0
-434 431 0
-434 -433 0
341 -338 340 0
-341 338 0
-341 -340 0
366 -363 365 0
-366 363 0
-366 -365 0
370 -362 369 0
-370 362 0
-370 -369 0
380 -377 379 0
-380 377 0
-380 -379 0
293 -291 292 0
-293 291 0
-293 -292 0
310 -302 309 0
-310 302 0
-310 -309 0
295 -290 294 0
-295 290 0
-295 -294 0
400 -397 399 0
-400 397 0
-400 -399 0
382 -377 381 0
-382 377 0
-382 -381 0
199 -197 198 0
-199 197 0
-199 -198 0
219 -216 218 0
-219 216 0
-219 -218 0
312 -302 311 0
-312 302 0
-312 -311 0
193 -186 192 0
-193 186 0
-193 -192 0
211 -206 210 0
-211 206 0
-211 -210 0
283 -271 282 0
-283 271 0
-283 -282 0
306 -303 305 0
-306 303 0
-306 -305 0
343 -338 342 0
-343 338 0
-343 -342 0
314 -302 313 0
-314 302 0
-314 -313 0
392 -387 391 0
-392 387 0
-392 -391 0
368 -363 367 0
-368 363 0
-368 -367 0
189 -187 188 0
-189 187 0
-189 -188 0
445 -441 444 0
-445 441 0
-445 -444 0
160 -158 159 0
-160 158 0
-160 -159 0
179 -176 178 0
-179 176 0
-179 -178 0
162 -157 161 0
-162 157 0
-162 -161 0
145 -143 144 0
-145 143 0
-145 -144 0
329 -321 328 0
-329 321 0
-329 -328 0
740 -227 234 0
-740 227 0
-740 -234 0
250 -245 249 0
-250 245 0
-250 -249 0
252 -244 251 0
-252 244 0
-252 -251 0
237 -226 236 0
-237 226 0
-237 -236 0
285 -271 284 0
-285 271 0
-285 -284 0
414 -407 413 0
-414 407 0
-414 -413 0
254 -244 253 0
-254 244 0
-254 -253 0
138 -133 137 0
-138 133 0
-138 -137 0
118 -113 117 0
-118 113 0
-118 -117 0
96 -93 95 0
-96 93 0
-96 -95 0
181 -176 180 0
-181 176 0
-181 -180 0
112 -103 111 0
-112 103 0
-112 -111 0
152 -150 151 0
-152 150 0
-152 -151 0
239 -226 238 0
-239 226 0
-239 -238 0
110 -104 109 0
-110 104 0
-110 -109 0
154 -150 153 0
-154 150 0
-154 -153 0
147 -143 146 0
-147 143 0
-147 -146 0
149 -143 148 0
-149 143 0
-149 -148 0
80 79 0
-80 -79 0
82 81 0
-82 -81 0
331 -323 330 0
-331 323 0
-331 -330 0
333 -323 332 0
-333 323 0
-333 -332 0
402 -398 401 0
-402 398 0
-402 -401 0
404 -398 403 0
-404 398 0
-404 -403 0
416 -408 415 0
-416 408 0
-416 -415 0
418 -408 417 0
-418 408 0
-418 -417 0
420 -408 419 0
-420 408 0
-420 -419 0
256 -248 255 0
-256 248 0
-256 -255 0
258 -248 257 0
-258 248 0
-258 -257 0
260 -248 259 0
-260 248 0
-260 -259 0
262 -248 261 0
-262 248 0
-262 -261 0
126 -124 125 0
-126 124 0
-126 -125 0
128 -124 127 0
-128 124 0
-128 -127 0
436 -432 435 0
-436 432 0
-436 -435 0
438 -432 437 0
-438 432 0
-438 -437 0
345 -339 344 0
-345 339 0
-345 -344 0
347 -339 346 0
-347 339 0
-347 -346 0
98 -94 97 0
-98 94 0
-98 -97 0
100 -94 99 0
-100 94 0
-100 -99 0
372 -364 371 0
-372 364 0
-372 -371 0
374 -364 373 0
-374 364 0
-374 -373 0
264 -247 263 0
-264 247 0
-264 -263 0
266 -247 265 0
-266 247 0
-266 -265 0
183 -177 182 0
-183 177 0
-183 -182 0
185 -177 184 0
-185 177 0
-185 -184 0
120 -114 119 0
-120 114 0
-120 -119 0
221 -217 220 0
-221 217 0
-221 -220 0
223 -217 222 0
-223 217 0
-223 -222 0
430 -421 429 0
-430 421 0
-430 -429 0
357 -349 356 0
-357 349 0
-357 -356 0
359 -349 358 0
-359 349 0
-359 -358 0
361 -349 360 0
-361 349 0
-361 -360 0
376 -362 375 0
-376 362 0
-376 -375 0
316 -304 315 0
-316 304 0
-316 -315 0
318 -304 317 0
-318 304 0
-318 -317 0
289 -272 288 0
-289 272 0
-289 -288 0
394 -388 393 0
-394 388 0
-394 -393 0
396 -388 395 0
-396 388 0
-396 -395 0
213 -207 212 0
-213 207 0
-213 -212 0
215 -207 214 0
-215 207 0
-215 -214 0
301 -290 300 0
-301 290 0
-301 -300 0
203 -196 202 0
-203 196 0
-203 -202 0
205 -196 204 0
-205 196 0
-205 -204 0
297 -291 296 0
-297 291 0
-297 -296 0
299 -291 298 0
-299 291 0
-299 -298 0
335 -322 334 0
-335 322 0
-335 -334 0
337 -322 336 0
-337 322 0
-337 -336 0
384 -378 383 0
-384 378 0
-384 -383 0
386 -378 385 0
-386 378 0
-386 -385 0
201 -197 200 0
-201 197 0
-201 -200 0
440 -431 439 0
-440 431 0
-440 -439 0
171 -167 170 0
-171 167 0
-171 -170 0
173 -167 172 0
-173 167 0
-173 -172 0
175 -167 174 0
-175 167 0
-175 -174 0
140 -134 139 0
-140 134 0
-140 -139 0
320 -303 319 0
-320 303 0
-320 -319 0
741 -227 234 0
-741 227 0
-741 -234 0
241 -227 240 0
-241 227 0
-241 -240 0
243 -227 242 0
-243 227 0
-243 -242 0
268 -246 267 0
-268 246 0
-268 -267 0
270 -245 269 0
-270 245 0
-270 -269 0
406 -397 405 0
-406 397 0
-406 -405 0
287 -273 286 0
-287 273 0
-287 -286 0
130 -123 129 0
-130 123 0
-130 -129 0
132 -123 131 0
-132 123 0
-132 -131 0
92 -83 91 0
-92 83 0
-92 -91 0
195 -187 194 0
-195 187 0
-195 -194 0
102 -93 101 0
-102 93 0
-102 -101 0
164 -158 163 0
-164 158 0
-164 -163 0
225 -216 224 0
-225 216 0
-225 -224 0
122 -113 121 0
-122 113 0
-122 -121 0
166 -157 165 0
-166 157 0
-166 -165 0
156 -150 155 0
-156 150 0
-156 -155 0
142 -133 141 0
-142 133 0
-142 -141 0
742 -178 0
-742 178 0
743 -180 0
-743 180 0
176 0
-464 0
-81 -79 0
-87 -85 -84 0
-91 -89 -83 0
-97 -99 -94 0
-101 -95 -93 0
-107 -105 -104 0
-109 -105 -104 0
-109 -107 -104 0
-119 -115 -114 0
-121 -117 -113 0
-125 -127 -124 0
-129 -131 -123 0
-139 -135 -134 0
-141 -137 -133 0
-146 -144 -143 0
-148 -144 -143 0
-148 -146 -143 0
-153 -151 -150 0
-155 -151 -150 0
-155 -153 -150 0
-163 -159 -158 0
-165 -161 -157 0
-170 -168 -167 0
-172 -168 -167 0
-172 -170 -167 0
-172 -174 -167 0
-174 -168 -167 0
-174 -170 -167 0
-180 -178 -176 0
-184 -182 -177 0
-192 -190 -186 0
-194 -188 -187 0
-200 -198 -197 0
-204 -202 -196 0
-210 -208 -206 0
-214 -212 -207 0
-222 -220 -217 0
-224 -218 -216 0
-230 -228 -227 0
-232 -228 -227 0
-232 -230 -227 0
-234 -228 -227 0
-234 -230 -227 0
-234 -232 -227 0
-238 -236 -226 0
-240 -228 -227 0
-240 -230 -227 0
-240 -232 -227 0
-240 -234 -227 0
-242 -228 -227 0
-242 -230 -227 0
-242 -232 -227 0
-242 -234 -227 0
-242 -240 -227 0
-253 -251 -244 0
-255 -257 -248 0
-255 -259 -248 0
-255 -261 -248 0
-257 -261 -248 0
-259 -257 -248 0
-259 -261 -248 0
-263 -265 -247 0
-269 -249 -245 0
-280 -278 -271 0
-282 -278 -271 0
-282 -280 -271 0
-284 -278 -271 0
-284 -280 -271 0
-284 -282 -271 0
-286 -274 -273 0
-288 -276 -272 0
-296 -292 -291 0
-296 -298 -291 0
-298 -292 -291 0
-300 -294 -290 0
-309 -307 -302 0
-311 -307 -302 0
-311 -309 -302 0
-313 -307 -302 0
-313 -309 -302 0
-313 -311 -302 0
-317 -315 -304 0
-319 -305 -303 0
-328 -326 -321 0
-330 -332 -323 0
-334 -324 -322 0
-336 -324 -322 0
-336 -334 -322 0
-342 -340 -338 0
-344 -346 -339 0
-354 -352 -348 0
-356 -350 -349 0
-356 -360 -349 0
-358 -350 -349 0
-358 -356 -349 0
-358 -360 -349 0
-360 -350 -349 0
-367 -365 -363 0
-371 -373 -364 0
-375 -369 -362 0
-381 -379 -377 0
-385 -383 -378 0
-391 -389 -387 0
-395 -393 -388 0
-401 -403 -398 0
-405 -399 -397 0
-413 -411 -407 0
-415 -409 -408 0
-417 -409 -408 0
-417 -415 -408 0
-419 -409 -408 0
-419 -415 -408 0
-419 -417 -408 0
-425 -423 -422 0
-429 -427 -421 0
-435 -437 -432 0
-439 -433 -431 0
-444 -442 -441 0
513 0
514 0
515 0
516 0
517 0
518 0
519 0
520 0
521 0
522 0
523 0
524 0
525 0
526 0
527 0
528 0
529 0
530 0
531 0
532 0
533 0
534 0
535 0
536 0
537 0
538 0
539 0
540 0
541 0
542 0
543 0
544 0
545 0
546 0
547 0
548 0
549 0
550 0
551 0
552 0
553 0
554 0
555 0
556 0
557 0
558 0
559 0
560 0
561 0
562 0
563 0
564 0
565 0
566 0
567 0
568 0
569 0
570 0
571 0
572 0
573 0
574 0
575 0
576 0
577 0
578 0
579 0
580 0
581 0
582 0
583 0
584 0
585 0
586 0
587 0
588 0
589 0
590 0
-1 0
-2 0
-3 0
-4 0
-5 0
-6 0
-7 0
-8 0
-9 0
-10 0
-11 0
-12 0
-13 0
-14 0
-15 0
-16 0
-17 0
-18 0
-19 0
-20 0
-21 0
-22 0
-23 0
-24 0
-25 0
-26 0
-27 0
-28 0
-29 0
-30 0
-31 0
-32 0
-33 0
-34 0
-35 0
-36 0
-37 0
-38 0
-39 0
-40 0
-41 0
-42 0
-43 0
-44 0
-45 0
-46 0
-47 0
-48 0
-49 0
-50 0
-51 0
-52 0
-53 0
-54 0
-55 0
-56 0
-57 0
-58 0
-59 0
-60 0
-61 0
-62 0
-63 0
-64 0
-65 0
-66 0
-67 0
-68 0
-69 0
-70 0
-71 0
-72 0
-73 0
-74 0
-75 0
-76 0
-77 0
-78 0
-83 591 597 0
83 -591 0
83 -597 0
-84 592 595 0
84 -592 0
84 -595 0
-93 593 598 0
93 -593 0
93 -598 0
-94 594 601 0
94 -594 0
94 -601 0
-104 596 602 603 0
104 -596 0
104 -602 0
104 -603 0
-113 599 606 0
113 -599 0
113 -606 0
-114 600 608 0
114 -600 0
114 -608 0
-123 604 612 0
123 -604 0
123 -612 0
-124 605 613 0
124 -605 0
124 -613 0
-133 607 614 0
133 -607 0
133 -614 0
-134 609 616 0
134 -609 0
134 -616 0
-143 610 611 617 0
143 -610 0
143 -611 0
143 -617 0
-150 615 620 621 0
150 -615 0
150 -620 0
150 -621 0
-157 618 624 0
157 -618 0
157 -624 0
-158 619 626 0
158 -619 0
158 -626 0
-167 622 623 628 631 0
167 -622 0
167 -623 0
167 -628 0
167 -631 0
-176 625 632 0
176 -625 0
176 -632 0
-177 627 634 0
177 -627 0
177 -634 0
-186 629 637 0
186 -629 0
186 -637 0
-187 630 638 0
187 -630 0
187 -638 0
-196 633 642 0
196 -633 0
196 -642 0
-197 635 641 0
197 -635 0
197 -641 0
-206 636 645 0
206 -636 0
206 -645 0
-207 639 647 0
207 -639 0
207 -647 0
-216 640 652 0
216 -640 0
216 -652 0
-217 643 654 0
217 -643 0
217 -654 0
-226 644 658 0
226 -644 0
226 -658 0
-227 646 653 659 663 666 667 0
227 -646 0
227 -653 0
227 -659 0
227 -663 0
227 -666 0
227 -667 0
-234 648 649 0
234 -648 0
234 -649 0
-235 740 741 0
235 -740 0
235 -741 0
-244 650 669 0
244 -650 0
244 -669 0
-245 651 670 0
245 -651 0
245 -670 0
-247 655 672 0
247 -655 0
247 -672 0
-248 656 673 674 675 0
248 -656 0
248 -673 0
248 -674 0
248 -675 0
-271 657 660 664 678 0
271 -657 0
271 -660 0
271 -664 0
271 -678 0
-272 661 679 0
272 -661 0
272 -679 0
-273 662 665 0
273 -662 0
273 -665 0
-290 668 685 0
290 -668 0
290 -685 0
-291 671 683 688 0
291 -671 0
291 -683 0
291 -688 0
-302 676 682 689 692 0
302 -676 0
302 -682 0
302 -689 0
302 -692 0
-303 677 693 0
303 -677 0
303 -693 0
-304 680 686 0
304 -680 0
304 -686 0
-321 681 696 0
321 -681 0
321 -696 0
-322 684 691 698 0
322 -684 0
322 -691 0
322 -698 0
-323 687 695 0
323 -687 0
323 -695 0
-338 690 702 0
338 -690 0
338 -702 0
-339 694 704 0
339 -694 0
339 -704 0
-348 697 708 0
348 -697 0
348 -708 0
-349 699 707 709 711 0
349 -699 0
349 -707 0
349 -709 0
349 -711 0
-362 700 715 0
362 -700 0
362 -715 0
-363 701 712 0
363 -701 0
363 -712 0
-364 703 705 0
364 -703 0
364 -705 0
-377 706 716 0
377 -706 0
377 -716 0
-378 710 718 0
378 -710 0
378 -718 0
-387 713 722 0
387 -713 0
387 -722 0
-388 714 723 0
388 -714 0
388 -723 0
-397 717 727 0
397 -717 0
397 -727 0
-398 719 729 0
398 -719 0
398 -729 0
-407 720 724 0
407 -720 0
407 -724 0
-408 721 728 731 733 0
408 -721 0
408 -728 0
408 -731 0
408 -733 0
-421 725 737 0
421 -725 0
421 -737 0
-422 726 735 0
422 -726 0
422 -735 0
-431 730 738 0
431 -730 0
431 -738 0
-432 732 739 0
432 -732 0
432 -739 0
-441 734 736 0
441 -734 0
441 -736 0
-446 0
-447 0
-448 0
-449 0
-450 0
-451 0
-452 0
-453 0
-454 0
-455 0
-456 0
-457 0
-458 0
-459 0
-460 0
-461 0
-462 0
-463 0
-464 742 743 0
464 -742 0
464 -743 0
-465 0
-466 0
-467 0
-468 0
-469 0
-470 0
-471 0
-472 0
-473 0
-474 0
-475 0
-476 0
-477 0
-478 0
-479 0
-480 0
-481 0
-482 0
-483 0
-484 0
-485 0
-486 0
-487 0
-488 0
-489 0
-490 0
-491 0
-492 0
-493 0
-494 0
-495 0
-496 0
-497 0
-498 0
-499 0
-500 0
-501 0
-502 0
-503 0
-504 0
-505 0
-506 0
-507 0
-508 0
-509 0
-510 0
-511 0
-512 0
